
Gurobi 8.1.1 (linux64, Python) logging started Tue Sep 10 02:43:53 2019

Academic license - for non-commercial use only

Gurobi 8.1.1 (linux64, Python) logging started Tue Sep 10 02:43:53 2019

Academic license - for non-commercial use only

Gurobi 8.1.1 (linux64, Python) logging started Tue Sep 10 02:43:53 2019

Academic license - for non-commercial use only

Gurobi 8.1.1 (linux64, Python) logging started Tue Sep 10 02:43:54 2019

Academic license - for non-commercial use only

Gurobi 8.1.1 (linux64, Python) logging started Tue Sep 10 02:43:54 2019

Academic license - for non-commercial use only

Gurobi 8.1.1 (linux64, Python) logging started Tue Sep 10 02:43:56 2019

Academic license - for non-commercial use only

Gurobi 8.1.1 (linux64, Python) logging started Tue Sep 10 02:43:57 2019

Academic license - for non-commercial use only

Gurobi 8.1.1 (linux64, Python) logging started Tue Sep 10 02:44:03 2019

Academic license - for non-commercial use only

Gurobi 8.1.1 (linux64, Python) logging started Tue Sep 10 13:26:33 2019

Academic license - for non-commercial use only

Gurobi 8.1.1 (linux64, Python) logging started Tue Sep 10 13:26:34 2019

Academic license - for non-commercial use only

Gurobi 8.1.1 (linux64, Python) logging started Tue Sep 10 13:26:34 2019

Academic license - for non-commercial use only

Gurobi 8.1.1 (linux64, Python) logging started Tue Sep 10 13:26:35 2019

Academic license - for non-commercial use only

Gurobi 8.1.1 (linux64, Python) logging started Tue Sep 10 13:26:35 2019

Academic license - for non-commercial use only

Gurobi 8.1.1 (linux64, Python) logging started Tue Sep 10 13:26:35 2019

Academic license - for non-commercial use only

Gurobi 8.1.1 (linux64, Python) logging started Tue Sep 10 13:26:38 2019

Academic license - for non-commercial use only

Gurobi 8.1.1 (linux64, Python) logging started Tue Sep 10 13:26:38 2019

Academic license - for non-commercial use only

Gurobi 8.1.1 (linux64, Python) logging started Tue Sep 10 13:26:38 2019

Academic license - for non-commercial use only

Gurobi 8.1.1 (linux64, Python) logging started Tue Sep 10 13:26:42 2019

Academic license - for non-commercial use only

Gurobi 8.1.1 (linux64, Python) logging started Tue Sep 10 13:26:43 2019

Academic license - for non-commercial use only

Gurobi 8.1.1 (linux64, Python) logging started Tue Sep 10 13:26:44 2019

Academic license - for non-commercial use only

Gurobi 8.1.1 (linux64, Python) logging started Tue Sep 10 13:26:47 2019

Academic license - for non-commercial use only

Gurobi 8.1.1 (linux64, Python) logging started Tue Sep 10 13:26:47 2019

Academic license - for non-commercial use only

Gurobi 8.1.1 (linux64, Python) logging started Tue Sep 10 13:26:49 2019

Academic license - for non-commercial use only

Gurobi 8.1.1 (linux64, Python) logging started Tue Sep 10 13:26:49 2019

Academic license - for non-commercial use only

Gurobi 8.1.1 (linux64, Python) logging started Tue Sep 10 13:28:22 2019

Academic license - for non-commercial use only

Gurobi 8.1.1 (linux64, Python) logging started Tue Sep 10 13:28:23 2019

Academic license - for non-commercial use only

Gurobi 8.1.1 (linux64, Python) logging started Tue Sep 10 13:28:24 2019

Academic license - for non-commercial use only

Gurobi 8.1.1 (linux64, Python) logging started Tue Sep 10 13:28:27 2019

Academic license - for non-commercial use only

Gurobi 8.1.1 (linux64, Python) logging started Tue Sep 10 13:28:35 2019

Academic license - for non-commercial use only

Gurobi 8.1.1 (linux64, Python) logging started Tue Sep 10 13:28:36 2019

Academic license - for non-commercial use only

Gurobi 8.1.1 (linux64, Python) logging started Tue Sep 10 13:28:43 2019

Academic license - for non-commercial use only

Gurobi 8.1.1 (linux64, Python) logging started Tue Sep 10 13:28:46 2019

Academic license - for non-commercial use only

Gurobi 8.1.1 (linux64, Python) logging started Tue Sep 10 13:28:47 2019

Academic license - for non-commercial use only

Gurobi 8.1.1 (linux64, Python) logging started Tue Sep 10 13:28:48 2019

Academic license - for non-commercial use only

Gurobi 8.1.1 (linux64, Python) logging started Tue Sep 10 13:28:49 2019

Academic license - for non-commercial use only

Gurobi 8.1.1 (linux64, Python) logging started Tue Sep 10 13:28:55 2019

Academic license - for non-commercial use only

Gurobi 8.1.1 (linux64, Python) logging started Tue Sep 10 13:28:57 2019

Academic license - for non-commercial use only

Gurobi 8.1.1 (linux64, Python) logging started Tue Sep 10 13:28:58 2019

Academic license - for non-commercial use only

Gurobi 8.1.1 (linux64, Python) logging started Tue Sep 10 13:29:00 2019

Academic license - for non-commercial use only

Gurobi 8.1.1 (linux64, Python) logging started Tue Sep 10 13:29:07 2019

Academic license - for non-commercial use only

Gurobi 8.1.1 (linux64, Python) logging started Tue Sep 10 13:29:08 2019

Academic license - for non-commercial use only

Gurobi 8.1.1 (linux64, Python) logging started Tue Sep 10 13:29:14 2019

Academic license - for non-commercial use only

Gurobi 8.1.1 (linux64, Python) logging started Tue Sep 10 13:29:14 2019

Academic license - for non-commercial use only

Gurobi 8.1.1 (linux64, Python) logging started Tue Sep 10 13:29:18 2019

Academic license - for non-commercial use only

Gurobi 8.1.1 (linux64, Python) logging started Tue Sep 10 13:29:19 2019

Academic license - for non-commercial use only

Gurobi 8.1.1 (linux64, Python) logging started Tue Sep 10 13:29:21 2019

Academic license - for non-commercial use only

Gurobi 8.1.1 (linux64, Python) logging started Tue Sep 10 13:29:26 2019

Academic license - for non-commercial use only

Gurobi 8.1.1 (linux64, Python) logging started Tue Sep 10 13:29:31 2019

Academic license - for non-commercial use only

Gurobi 8.1.1 (linux64, Python) logging started Tue Sep 10 13:29:35 2019

Academic license - for non-commercial use only

Gurobi 8.1.1 (linux64, Python) logging started Tue Sep 10 13:29:37 2019

Academic license - for non-commercial use only

Gurobi 8.1.1 (linux64, Python) logging started Tue Sep 10 13:29:39 2019

Academic license - for non-commercial use only

Gurobi 8.1.1 (linux64, Python) logging started Tue Sep 10 13:29:45 2019

Academic license - for non-commercial use only

Gurobi 8.1.1 (linux64, Python) logging started Tue Sep 10 13:29:47 2019

Academic license - for non-commercial use only

Gurobi 8.1.1 (linux64, Python) logging started Tue Sep 10 13:29:51 2019

Academic license - for non-commercial use only

Gurobi 8.1.1 (linux64, Python) logging started Tue Sep 10 13:29:54 2019

Academic license - for non-commercial use only

Gurobi 8.1.1 (linux64, Python) logging started Tue Sep 10 13:29:56 2019

Academic license - for non-commercial use only

Gurobi 8.1.1 (linux64, Python) logging started Tue Sep 10 13:30:02 2019

Academic license - for non-commercial use only

Gurobi 8.1.1 (linux64, Python) logging started Tue Sep 10 13:30:04 2019

Academic license - for non-commercial use only

Gurobi 8.1.1 (linux64, Python) logging started Tue Sep 10 13:30:13 2019

Academic license - for non-commercial use only

Gurobi 8.1.1 (linux64, Python) logging started Tue Sep 10 13:30:33 2019

Academic license - for non-commercial use only

Gurobi 8.1.1 (linux64, Python) logging started Tue Sep 10 13:30:35 2019

Academic license - for non-commercial use only

Gurobi 8.1.1 (linux64, Python) logging started Tue Sep 10 13:30:40 2019

Academic license - for non-commercial use only

Gurobi 8.1.1 (linux64, Python) logging started Tue Sep 10 13:30:44 2019

Academic license - for non-commercial use only

Gurobi 8.1.1 (linux64, Python) logging started Tue Sep 10 13:30:47 2019

Academic license - for non-commercial use only

Gurobi 8.1.1 (linux64, Python) logging started Tue Sep 10 13:30:52 2019

Academic license - for non-commercial use only

Gurobi 8.1.1 (linux64, Python) logging started Tue Sep 10 13:31:02 2019

Academic license - for non-commercial use only

Gurobi 8.1.1 (linux64, Python) logging started Tue Sep 10 13:31:06 2019

Academic license - for non-commercial use only

Gurobi 8.1.1 (linux64, Python) logging started Tue Sep 10 13:31:11 2019

Academic license - for non-commercial use only

Gurobi 8.1.1 (linux64, Python) logging started Tue Sep 10 13:31:18 2019

Academic license - for non-commercial use only

Gurobi 8.1.1 (linux64, Python) logging started Tue Sep 10 13:31:20 2019

Academic license - for non-commercial use only

Gurobi 8.1.1 (linux64, Python) logging started Tue Sep 10 13:31:21 2019

Academic license - for non-commercial use only

Gurobi 8.1.1 (linux64, Python) logging started Tue Sep 10 13:31:36 2019

Academic license - for non-commercial use only

Gurobi 8.1.1 (linux64, Python) logging started Tue Sep 10 13:31:42 2019

Academic license - for non-commercial use only

Gurobi 8.1.1 (linux64, Python) logging started Tue Sep 10 13:31:46 2019

Academic license - for non-commercial use only

Gurobi 8.1.1 (linux64, Python) logging started Tue Sep 10 13:31:49 2019

Academic license - for non-commercial use only

Gurobi 8.1.1 (linux64, Python) logging started Tue Sep 10 13:31:56 2019

Academic license - for non-commercial use only

Gurobi 8.1.1 (linux64, Python) logging started Tue Sep 10 13:32:03 2019

Academic license - for non-commercial use only

Gurobi 8.1.1 (linux64, Python) logging started Tue Sep 10 13:32:04 2019

Academic license - for non-commercial use only

Gurobi 8.1.1 (linux64, Python) logging started Tue Sep 10 13:32:04 2019

Academic license - for non-commercial use only

Gurobi 8.1.1 (linux64, Python) logging started Tue Sep 10 13:32:12 2019

Academic license - for non-commercial use only

Gurobi 8.1.1 (linux64, Python) logging started Tue Sep 10 13:32:14 2019

Academic license - for non-commercial use only

Gurobi 8.1.1 (linux64, Python) logging started Tue Sep 10 13:32:15 2019

Academic license - for non-commercial use only

Gurobi 8.1.1 (linux64, Python) logging started Tue Sep 10 13:32:17 2019

Academic license - for non-commercial use only

Gurobi 8.1.1 (linux64, Python) logging started Tue Sep 10 13:32:25 2019

Academic license - for non-commercial use only

Gurobi 8.1.1 (linux64, Python) logging started Tue Sep 10 13:32:26 2019

Academic license - for non-commercial use only

Gurobi 8.1.1 (linux64, Python) logging started Tue Sep 10 13:32:26 2019

Academic license - for non-commercial use only

Gurobi 8.1.1 (linux64, Python) logging started Tue Sep 10 13:32:44 2019

Academic license - for non-commercial use only

Gurobi 8.1.1 (linux64, Python) logging started Tue Sep 10 13:32:54 2019

Academic license - for non-commercial use only

Gurobi 8.1.1 (linux64, Python) logging started Tue Sep 10 13:32:57 2019

Academic license - for non-commercial use only

Gurobi 8.1.1 (linux64, Python) logging started Tue Sep 10 13:32:58 2019

Academic license - for non-commercial use only

Gurobi 8.1.1 (linux64, Python) logging started Tue Sep 10 13:33:02 2019

Academic license - for non-commercial use only

Gurobi 8.1.1 (linux64, Python) logging started Tue Sep 10 13:33:08 2019

Academic license - for non-commercial use only

Gurobi 8.1.1 (linux64, Python) logging started Tue Sep 10 13:33:12 2019

Academic license - for non-commercial use only

Gurobi 8.1.1 (linux64, Python) logging started Tue Sep 10 13:33:16 2019

Academic license - for non-commercial use only

Gurobi 8.1.1 (linux64, Python) logging started Tue Sep 10 13:33:19 2019

Academic license - for non-commercial use only

Gurobi 8.1.1 (linux64, Python) logging started Tue Sep 10 13:33:20 2019

Academic license - for non-commercial use only

Gurobi 8.1.1 (linux64, Python) logging started Tue Sep 10 13:33:24 2019

Academic license - for non-commercial use only

Gurobi 8.1.1 (linux64, Python) logging started Tue Sep 10 13:33:26 2019

Academic license - for non-commercial use only

Gurobi 8.1.1 (linux64, Python) logging started Tue Sep 10 13:33:27 2019

Academic license - for non-commercial use only

Gurobi 8.1.1 (linux64, Python) logging started Tue Sep 10 13:33:28 2019

Academic license - for non-commercial use only

Gurobi 8.1.1 (linux64, Python) logging started Tue Sep 10 13:33:31 2019

Academic license - for non-commercial use only

Gurobi 8.1.1 (linux64, Python) logging started Tue Sep 10 13:33:36 2019

Academic license - for non-commercial use only

Gurobi 8.1.1 (linux64, Python) logging started Tue Sep 10 13:33:38 2019

Academic license - for non-commercial use only

Gurobi 8.1.1 (linux64, Python) logging started Tue Sep 10 13:33:41 2019

Academic license - for non-commercial use only

Gurobi 8.1.1 (linux64, Python) logging started Tue Sep 10 13:33:49 2019

Academic license - for non-commercial use only

Gurobi 8.1.1 (linux64, Python) logging started Tue Sep 10 13:33:49 2019

Academic license - for non-commercial use only

Gurobi 8.1.1 (linux64, Python) logging started Tue Sep 10 13:33:50 2019

Academic license - for non-commercial use only

Gurobi 8.1.1 (linux64, Python) logging started Tue Sep 10 13:33:54 2019

Academic license - for non-commercial use only

Gurobi 8.1.1 (linux64, Python) logging started Tue Sep 10 13:33:55 2019

Academic license - for non-commercial use only

Gurobi 8.1.1 (linux64, Python) logging started Tue Sep 10 13:34:02 2019

Academic license - for non-commercial use only

Gurobi 8.1.1 (linux64, Python) logging started Tue Sep 10 13:34:05 2019

Academic license - for non-commercial use only

Gurobi 8.1.1 (linux64, Python) logging started Tue Sep 10 13:34:07 2019

Academic license - for non-commercial use only

Gurobi 8.1.1 (linux64, Python) logging started Tue Sep 10 13:34:08 2019

Academic license - for non-commercial use only

Gurobi 8.1.1 (linux64, Python) logging started Tue Sep 10 13:34:12 2019

Academic license - for non-commercial use only

Gurobi 8.1.1 (linux64, Python) logging started Tue Sep 10 13:34:15 2019

Academic license - for non-commercial use only

Gurobi 8.1.1 (linux64, Python) logging started Tue Sep 10 13:34:18 2019

Academic license - for non-commercial use only

Gurobi 8.1.1 (linux64, Python) logging started Tue Sep 10 13:34:20 2019

Academic license - for non-commercial use only

Gurobi 8.1.1 (linux64, Python) logging started Tue Sep 10 13:34:23 2019

Academic license - for non-commercial use only

Gurobi 8.1.1 (linux64, Python) logging started Tue Sep 10 13:34:45 2019

Academic license - for non-commercial use only

Gurobi 8.1.1 (linux64, Python) logging started Tue Sep 10 13:34:48 2019

Academic license - for non-commercial use only

Gurobi 8.1.1 (linux64, Python) logging started Tue Sep 10 13:34:58 2019

Academic license - for non-commercial use only

Gurobi 8.1.1 (linux64, Python) logging started Tue Sep 10 13:35:03 2019

Academic license - for non-commercial use only

Gurobi 8.1.1 (linux64, Python) logging started Tue Sep 10 13:35:04 2019

Academic license - for non-commercial use only

Gurobi 8.1.1 (linux64, Python) logging started Tue Sep 10 13:35:06 2019

Academic license - for non-commercial use only

Gurobi 8.1.1 (linux64, Python) logging started Tue Sep 10 13:35:10 2019

Academic license - for non-commercial use only

Gurobi 8.1.1 (linux64, Python) logging started Tue Sep 10 13:35:12 2019

Academic license - for non-commercial use only

Gurobi 8.1.1 (linux64, Python) logging started Tue Sep 10 13:35:18 2019

Academic license - for non-commercial use only

Gurobi 8.1.1 (linux64, Python) logging started Tue Sep 10 13:35:19 2019

Academic license - for non-commercial use only

Gurobi 8.1.1 (linux64, Python) logging started Tue Sep 10 13:35:20 2019

Academic license - for non-commercial use only

Gurobi 8.1.1 (linux64, Python) logging started Tue Sep 10 13:35:22 2019

Academic license - for non-commercial use only

Gurobi 8.1.1 (linux64, Python) logging started Tue Sep 10 13:35:23 2019

Academic license - for non-commercial use only

Gurobi 8.1.1 (linux64, Python) logging started Tue Sep 10 13:35:28 2019

Academic license - for non-commercial use only

Gurobi 8.1.1 (linux64, Python) logging started Tue Sep 10 13:35:32 2019

Academic license - for non-commercial use only

Gurobi 8.1.1 (linux64, Python) logging started Tue Sep 10 13:35:33 2019

Academic license - for non-commercial use only

Gurobi 8.1.1 (linux64, Python) logging started Tue Sep 10 13:35:51 2019

Academic license - for non-commercial use only

Gurobi 8.1.1 (linux64, Python) logging started Tue Sep 10 13:36:03 2019

Academic license - for non-commercial use only

Gurobi 8.1.1 (linux64, Python) logging started Tue Sep 10 13:36:06 2019

Academic license - for non-commercial use only

Gurobi 8.1.1 (linux64, Python) logging started Tue Sep 10 13:36:22 2019

Academic license - for non-commercial use only

Gurobi 8.1.1 (linux64, Python) logging started Tue Sep 10 13:36:23 2019

Academic license - for non-commercial use only

Gurobi 8.1.1 (linux64, Python) logging started Tue Sep 10 13:36:28 2019

Academic license - for non-commercial use only

Gurobi 8.1.1 (linux64, Python) logging started Tue Sep 10 13:36:33 2019

Academic license - for non-commercial use only

Gurobi 8.1.1 (linux64, Python) logging started Tue Sep 10 13:36:36 2019

Academic license - for non-commercial use only

Gurobi 8.1.1 (linux64, Python) logging started Tue Sep 10 13:36:36 2019

Academic license - for non-commercial use only

Gurobi 8.1.1 (linux64, Python) logging started Tue Sep 10 13:36:40 2019

Academic license - for non-commercial use only

Gurobi 8.1.1 (linux64, Python) logging started Tue Sep 10 13:36:42 2019

Academic license - for non-commercial use only

Gurobi 8.1.1 (linux64, Python) logging started Tue Sep 10 13:36:42 2019

Academic license - for non-commercial use only

Gurobi 8.1.1 (linux64, Python) logging started Tue Sep 10 13:36:44 2019

Academic license - for non-commercial use only

Gurobi 8.1.1 (linux64, Python) logging started Tue Sep 10 13:36:45 2019

Academic license - for non-commercial use only

Gurobi 8.1.1 (linux64, Python) logging started Tue Sep 10 13:36:50 2019

Academic license - for non-commercial use only

Gurobi 8.1.1 (linux64, Python) logging started Tue Sep 10 13:36:56 2019

Academic license - for non-commercial use only

Gurobi 8.1.1 (linux64, Python) logging started Tue Sep 10 13:36:58 2019

Academic license - for non-commercial use only

Gurobi 8.1.1 (linux64, Python) logging started Tue Sep 10 13:37:00 2019

Academic license - for non-commercial use only

Gurobi 8.1.1 (linux64, Python) logging started Tue Sep 10 13:37:00 2019

Academic license - for non-commercial use only

Gurobi 8.1.1 (linux64, Python) logging started Tue Sep 10 13:37:02 2019

Academic license - for non-commercial use only

Gurobi 8.1.1 (linux64, Python) logging started Tue Sep 10 13:37:03 2019

Academic license - for non-commercial use only

Gurobi 8.1.1 (linux64, Python) logging started Tue Sep 10 13:37:04 2019

Academic license - for non-commercial use only

Gurobi 8.1.1 (linux64, Python) logging started Tue Sep 10 13:37:04 2019

Academic license - for non-commercial use only

Gurobi 8.1.1 (linux64, Python) logging started Tue Sep 10 13:37:07 2019

Academic license - for non-commercial use only

Gurobi 8.1.1 (linux64, Python) logging started Tue Sep 10 13:37:09 2019

Academic license - for non-commercial use only

Gurobi 8.1.1 (linux64, Python) logging started Tue Sep 10 13:37:09 2019

Academic license - for non-commercial use only

Gurobi 8.1.1 (linux64, Python) logging started Tue Sep 10 13:37:11 2019

Academic license - for non-commercial use only

Gurobi 8.1.1 (linux64, Python) logging started Tue Sep 10 13:37:12 2019

Academic license - for non-commercial use only

Gurobi 8.1.1 (linux64, Python) logging started Tue Sep 10 13:37:13 2019

Academic license - for non-commercial use only

Gurobi 8.1.1 (linux64, Python) logging started Tue Sep 10 13:37:13 2019

Academic license - for non-commercial use only

Gurobi 8.1.1 (linux64, Python) logging started Tue Sep 10 13:37:15 2019

Academic license - for non-commercial use only

Gurobi 8.1.1 (linux64, Python) logging started Tue Sep 10 13:37:20 2019

Academic license - for non-commercial use only

Gurobi 8.1.1 (linux64, Python) logging started Tue Sep 10 13:37:22 2019

Academic license - for non-commercial use only

Gurobi 8.1.1 (linux64, Python) logging started Tue Sep 10 13:37:22 2019

Academic license - for non-commercial use only

Gurobi 8.1.1 (linux64, Python) logging started Tue Sep 10 13:37:26 2019

Academic license - for non-commercial use only

Gurobi 8.1.1 (linux64, Python) logging started Tue Sep 10 13:37:27 2019

Academic license - for non-commercial use only

Gurobi 8.1.1 (linux64, Python) logging started Tue Sep 10 13:37:27 2019

Academic license - for non-commercial use only

Gurobi 8.1.1 (linux64, Python) logging started Tue Sep 10 13:37:30 2019

Academic license - for non-commercial use only

Gurobi 8.1.1 (linux64, Python) logging started Tue Sep 10 13:37:33 2019

Academic license - for non-commercial use only

Gurobi 8.1.1 (linux64, Python) logging started Tue Sep 10 13:37:33 2019

Academic license - for non-commercial use only

Gurobi 8.1.1 (linux64, Python) logging started Tue Sep 10 13:37:34 2019

Academic license - for non-commercial use only

Gurobi 8.1.1 (linux64, Python) logging started Tue Sep 10 13:37:34 2019

Academic license - for non-commercial use only

Gurobi 8.1.1 (linux64, Python) logging started Tue Sep 10 13:37:37 2019

Academic license - for non-commercial use only

Gurobi 8.1.1 (linux64, Python) logging started Tue Sep 10 13:37:38 2019

Academic license - for non-commercial use only

Gurobi 8.1.1 (linux64, Python) logging started Tue Sep 10 13:37:41 2019

Academic license - for non-commercial use only

Gurobi 8.1.1 (linux64, Python) logging started Tue Sep 10 13:37:44 2019

Academic license - for non-commercial use only

Gurobi 8.1.1 (linux64, Python) logging started Tue Sep 10 13:37:44 2019

Academic license - for non-commercial use only

Gurobi 8.1.1 (linux64, Python) logging started Tue Sep 10 13:37:47 2019

Academic license - for non-commercial use only

Gurobi 8.1.1 (linux64, Python) logging started Tue Sep 10 13:37:54 2019

Academic license - for non-commercial use only

Gurobi 8.1.1 (linux64, Python) logging started Tue Sep 10 13:37:57 2019

Academic license - for non-commercial use only

Gurobi 8.1.1 (linux64, Python) logging started Tue Sep 10 13:37:59 2019

Academic license - for non-commercial use only

Gurobi 8.1.1 (linux64, Python) logging started Tue Sep 10 13:38:02 2019

Academic license - for non-commercial use only

Gurobi 8.1.1 (linux64, Python) logging started Tue Sep 10 13:38:08 2019

Academic license - for non-commercial use only

Gurobi 8.1.1 (linux64, Python) logging started Tue Sep 10 13:38:24 2019

Academic license - for non-commercial use only

Gurobi 8.1.1 (linux64, Python) logging started Tue Sep 10 13:38:51 2019

Academic license - for non-commercial use only

Gurobi 8.1.1 (linux64, Python) logging started Tue Sep 10 13:38:52 2019

Academic license - for non-commercial use only

Gurobi 8.1.1 (linux64, Python) logging started Tue Sep 10 13:38:55 2019

Academic license - for non-commercial use only

Gurobi 8.1.1 (linux64, Python) logging started Tue Sep 10 13:39:05 2019

Academic license - for non-commercial use only

Gurobi 8.1.1 (linux64, Python) logging started Tue Sep 10 13:39:26 2019

Academic license - for non-commercial use only

Gurobi 8.1.1 (linux64, Python) logging started Tue Sep 10 13:39:38 2019

Academic license - for non-commercial use only

Gurobi 8.1.1 (linux64, Python) logging started Tue Sep 10 13:39:43 2019

Academic license - for non-commercial use only

Gurobi 8.1.1 (linux64, Python) logging started Tue Sep 10 13:39:45 2019

Academic license - for non-commercial use only

Gurobi 8.1.1 (linux64, Python) logging started Tue Sep 10 13:39:47 2019

Academic license - for non-commercial use only

Gurobi 8.1.1 (linux64, Python) logging started Tue Sep 10 13:39:51 2019

Academic license - for non-commercial use only

Gurobi 8.1.1 (linux64, Python) logging started Tue Sep 10 13:39:57 2019

Academic license - for non-commercial use only

Gurobi 8.1.1 (linux64, Python) logging started Tue Sep 10 13:40:06 2019

Academic license - for non-commercial use only

Gurobi 8.1.1 (linux64, Python) logging started Tue Sep 10 13:40:08 2019

Academic license - for non-commercial use only

Gurobi 8.1.1 (linux64, Python) logging started Tue Sep 10 13:40:12 2019

Academic license - for non-commercial use only

Gurobi 8.1.1 (linux64, Python) logging started Tue Sep 10 13:40:16 2019

Academic license - for non-commercial use only

Gurobi 8.1.1 (linux64, Python) logging started Tue Sep 10 13:40:25 2019

Academic license - for non-commercial use only

Gurobi 8.1.1 (linux64, Python) logging started Tue Sep 10 13:40:26 2019

Academic license - for non-commercial use only

Gurobi 8.1.1 (linux64, Python) logging started Tue Sep 10 13:40:26 2019

Academic license - for non-commercial use only

Gurobi 8.1.1 (linux64, Python) logging started Tue Sep 10 13:40:32 2019

Academic license - for non-commercial use only

Gurobi 8.1.1 (linux64, Python) logging started Tue Sep 10 13:40:33 2019

Academic license - for non-commercial use only

Gurobi 8.1.1 (linux64, Python) logging started Tue Sep 10 13:40:45 2019

Academic license - for non-commercial use only

Gurobi 8.1.1 (linux64, Python) logging started Tue Sep 10 13:40:47 2019

Academic license - for non-commercial use only

Gurobi 8.1.1 (linux64, Python) logging started Tue Sep 10 13:40:50 2019

Academic license - for non-commercial use only

Gurobi 8.1.1 (linux64, Python) logging started Tue Sep 10 13:40:51 2019

Academic license - for non-commercial use only

Gurobi 8.1.1 (linux64, Python) logging started Tue Sep 10 13:40:56 2019

Academic license - for non-commercial use only

Gurobi 8.1.1 (linux64, Python) logging started Tue Sep 10 13:40:59 2019

Academic license - for non-commercial use only

Gurobi 8.1.1 (linux64, Python) logging started Tue Sep 10 13:41:04 2019

Academic license - for non-commercial use only

Gurobi 8.1.1 (linux64, Python) logging started Tue Sep 10 13:41:05 2019

Academic license - for non-commercial use only

Gurobi 8.1.1 (linux64, Python) logging started Tue Sep 10 13:41:15 2019

Academic license - for non-commercial use only

Gurobi 8.1.1 (linux64, Python) logging started Tue Sep 10 13:41:23 2019

Academic license - for non-commercial use only

Gurobi 8.1.1 (linux64, Python) logging started Tue Sep 10 13:41:25 2019

Academic license - for non-commercial use only

Gurobi 8.1.1 (linux64, Python) logging started Tue Sep 10 13:41:27 2019

Academic license - for non-commercial use only

Gurobi 8.1.1 (linux64, Python) logging started Tue Sep 10 13:41:34 2019

Academic license - for non-commercial use only

Gurobi 8.1.1 (linux64, Python) logging started Tue Sep 10 13:41:36 2019

Academic license - for non-commercial use only

Gurobi 8.1.1 (linux64, Python) logging started Tue Sep 10 13:41:39 2019

Academic license - for non-commercial use only

Gurobi 8.1.1 (linux64, Python) logging started Tue Sep 10 13:41:45 2019

Academic license - for non-commercial use only

Gurobi 8.1.1 (linux64, Python) logging started Tue Sep 10 13:41:48 2019

Academic license - for non-commercial use only

Gurobi 8.1.1 (linux64, Python) logging started Tue Sep 10 13:41:51 2019

Academic license - for non-commercial use only

Gurobi 8.1.1 (linux64, Python) logging started Tue Sep 10 13:41:52 2019

Academic license - for non-commercial use only

Gurobi 8.1.1 (linux64, Python) logging started Tue Sep 10 13:41:53 2019

Academic license - for non-commercial use only

Gurobi 8.1.1 (linux64, Python) logging started Tue Sep 10 13:41:56 2019

Academic license - for non-commercial use only

Gurobi 8.1.1 (linux64, Python) logging started Tue Sep 10 13:41:56 2019

Academic license - for non-commercial use only

Gurobi 8.1.1 (linux64, Python) logging started Tue Sep 10 13:41:56 2019

Academic license - for non-commercial use only

Gurobi 8.1.1 (linux64, Python) logging started Tue Sep 10 13:42:00 2019

Academic license - for non-commercial use only

Gurobi 8.1.1 (linux64, Python) logging started Tue Sep 10 13:42:04 2019

Academic license - for non-commercial use only

Gurobi 8.1.1 (linux64, Python) logging started Tue Sep 10 13:42:05 2019

Academic license - for non-commercial use only

Gurobi 8.1.1 (linux64, Python) logging started Tue Sep 10 13:42:09 2019

Academic license - for non-commercial use only

Gurobi 8.1.1 (linux64, Python) logging started Tue Sep 10 13:42:12 2019

Academic license - for non-commercial use only

Gurobi 8.1.1 (linux64, Python) logging started Tue Sep 10 13:42:12 2019

Academic license - for non-commercial use only

Gurobi 8.1.1 (linux64, Python) logging started Tue Sep 10 13:42:12 2019

Academic license - for non-commercial use only

Gurobi 8.1.1 (linux64, Python) logging started Tue Sep 10 13:42:17 2019

Academic license - for non-commercial use only

Gurobi 8.1.1 (linux64, Python) logging started Tue Sep 10 13:42:18 2019

Academic license - for non-commercial use only

Gurobi 8.1.1 (linux64, Python) logging started Tue Sep 10 13:42:24 2019

Academic license - for non-commercial use only

Gurobi 8.1.1 (linux64, Python) logging started Tue Sep 10 13:42:27 2019

Academic license - for non-commercial use only

Gurobi 8.1.1 (linux64, Python) logging started Tue Sep 10 13:42:27 2019

Academic license - for non-commercial use only

Gurobi 8.1.1 (linux64, Python) logging started Tue Sep 10 13:42:34 2019

Academic license - for non-commercial use only

Gurobi 8.1.1 (linux64, Python) logging started Tue Sep 10 13:42:37 2019

Academic license - for non-commercial use only

Gurobi 8.1.1 (linux64, Python) logging started Tue Sep 10 13:42:39 2019

Academic license - for non-commercial use only

Gurobi 8.1.1 (linux64, Python) logging started Tue Sep 10 13:42:41 2019

Academic license - for non-commercial use only

Gurobi 8.1.1 (linux64, Python) logging started Tue Sep 10 13:42:46 2019

Academic license - for non-commercial use only

Gurobi 8.1.1 (linux64, Python) logging started Tue Sep 10 13:42:49 2019

Academic license - for non-commercial use only

Gurobi 8.1.1 (linux64, Python) logging started Tue Sep 10 13:42:54 2019

Academic license - for non-commercial use only

Gurobi 8.1.1 (linux64, Python) logging started Tue Sep 10 13:42:59 2019

Academic license - for non-commercial use only

Gurobi 8.1.1 (linux64, Python) logging started Tue Sep 10 13:43:01 2019

Academic license - for non-commercial use only

Gurobi 8.1.1 (linux64, Python) logging started Tue Sep 10 13:43:02 2019

Academic license - for non-commercial use only

Gurobi 8.1.1 (linux64, Python) logging started Tue Sep 10 13:43:02 2019

Academic license - for non-commercial use only

Gurobi 8.1.1 (linux64, Python) logging started Tue Sep 10 13:43:05 2019

Academic license - for non-commercial use only

Gurobi 8.1.1 (linux64, Python) logging started Tue Sep 10 13:43:06 2019

Academic license - for non-commercial use only

Gurobi 8.1.1 (linux64, Python) logging started Tue Sep 10 13:43:06 2019

Academic license - for non-commercial use only

Gurobi 8.1.1 (linux64, Python) logging started Tue Sep 10 13:43:08 2019

Academic license - for non-commercial use only

Gurobi 8.1.1 (linux64, Python) logging started Tue Sep 10 13:43:09 2019

Academic license - for non-commercial use only

Gurobi 8.1.1 (linux64, Python) logging started Tue Sep 10 13:43:19 2019

Academic license - for non-commercial use only

Gurobi 8.1.1 (linux64, Python) logging started Tue Sep 10 13:43:20 2019

Academic license - for non-commercial use only

Gurobi 8.1.1 (linux64, Python) logging started Tue Sep 10 13:43:29 2019

Academic license - for non-commercial use only

Gurobi 8.1.1 (linux64, Python) logging started Tue Sep 10 13:43:32 2019

Academic license - for non-commercial use only

Gurobi 8.1.1 (linux64, Python) logging started Tue Sep 10 13:43:34 2019

Academic license - for non-commercial use only

Gurobi 8.1.1 (linux64, Python) logging started Tue Sep 10 13:43:45 2019

Academic license - for non-commercial use only

Gurobi 8.1.1 (linux64, Python) logging started Tue Sep 10 13:43:46 2019

Academic license - for non-commercial use only

Gurobi 8.1.1 (linux64, Python) logging started Tue Sep 10 13:43:54 2019

Academic license - for non-commercial use only

Gurobi 8.1.1 (linux64, Python) logging started Tue Sep 10 13:43:54 2019

Academic license - for non-commercial use only

Gurobi 8.1.1 (linux64, Python) logging started Tue Sep 10 13:43:55 2019

Academic license - for non-commercial use only

Gurobi 8.1.1 (linux64, Python) logging started Tue Sep 10 13:43:56 2019

Academic license - for non-commercial use only

Gurobi 8.1.1 (linux64, Python) logging started Tue Sep 10 13:44:01 2019

Academic license - for non-commercial use only

Gurobi 8.1.1 (linux64, Python) logging started Tue Sep 10 13:44:01 2019

Academic license - for non-commercial use only

Gurobi 8.1.1 (linux64, Python) logging started Tue Sep 10 13:44:03 2019

Academic license - for non-commercial use only

Gurobi 8.1.1 (linux64, Python) logging started Tue Sep 10 13:44:03 2019

Academic license - for non-commercial use only

Gurobi 8.1.1 (linux64, Python) logging started Tue Sep 10 13:44:04 2019

Academic license - for non-commercial use only

Gurobi 8.1.1 (linux64, Python) logging started Tue Sep 10 13:44:07 2019

Academic license - for non-commercial use only

Gurobi 8.1.1 (linux64, Python) logging started Tue Sep 10 13:44:08 2019

Academic license - for non-commercial use only

Gurobi 8.1.1 (linux64, Python) logging started Tue Sep 10 13:44:12 2019

Academic license - for non-commercial use only

Gurobi 8.1.1 (linux64, Python) logging started Tue Sep 10 13:44:14 2019

Academic license - for non-commercial use only

Gurobi 8.1.1 (linux64, Python) logging started Tue Sep 10 13:44:17 2019

Academic license - for non-commercial use only

Gurobi 8.1.1 (linux64, Python) logging started Tue Sep 10 13:44:18 2019

Academic license - for non-commercial use only

Gurobi 8.1.1 (linux64, Python) logging started Tue Sep 10 13:44:18 2019

Academic license - for non-commercial use only

Gurobi 8.1.1 (linux64, Python) logging started Tue Sep 10 13:44:25 2019

Academic license - for non-commercial use only

Gurobi 8.1.1 (linux64, Python) logging started Tue Sep 10 13:44:33 2019

Academic license - for non-commercial use only

Gurobi 8.1.1 (linux64, Python) logging started Tue Sep 10 13:44:34 2019

Academic license - for non-commercial use only

Gurobi 8.1.1 (linux64, Python) logging started Tue Sep 10 13:44:36 2019

Academic license - for non-commercial use only

Gurobi 8.1.1 (linux64, Python) logging started Tue Sep 10 13:44:40 2019

Academic license - for non-commercial use only

Gurobi 8.1.1 (linux64, Python) logging started Tue Sep 10 13:44:41 2019

Academic license - for non-commercial use only

Gurobi 8.1.1 (linux64, Python) logging started Tue Sep 10 13:44:48 2019

Academic license - for non-commercial use only

Gurobi 8.1.1 (linux64, Python) logging started Tue Sep 10 13:44:49 2019

Academic license - for non-commercial use only

Gurobi 8.1.1 (linux64, Python) logging started Tue Sep 10 13:44:54 2019

Academic license - for non-commercial use only

Gurobi 8.1.1 (linux64, Python) logging started Tue Sep 10 13:44:59 2019

Academic license - for non-commercial use only

Gurobi 8.1.1 (linux64, Python) logging started Tue Sep 10 13:45:18 2019

Academic license - for non-commercial use only

Gurobi 8.1.1 (linux64, Python) logging started Tue Sep 10 13:45:26 2019

Academic license - for non-commercial use only

Gurobi 8.1.1 (linux64, Python) logging started Tue Sep 10 13:45:34 2019

Academic license - for non-commercial use only

Gurobi 8.1.1 (linux64, Python) logging started Tue Sep 10 13:45:34 2019

Academic license - for non-commercial use only

Gurobi 8.1.1 (linux64, Python) logging started Tue Sep 10 13:45:44 2019

Academic license - for non-commercial use only

Gurobi 8.1.1 (linux64, Python) logging started Tue Sep 10 13:45:46 2019

Academic license - for non-commercial use only

Gurobi 8.1.1 (linux64, Python) logging started Tue Sep 10 13:45:46 2019

Academic license - for non-commercial use only

Gurobi 8.1.1 (linux64, Python) logging started Tue Sep 10 13:45:47 2019

Academic license - for non-commercial use only

Gurobi 8.1.1 (linux64, Python) logging started Tue Sep 10 13:45:47 2019

Academic license - for non-commercial use only

Gurobi 8.1.1 (linux64, Python) logging started Tue Sep 10 13:45:57 2019

Academic license - for non-commercial use only

Gurobi 8.1.1 (linux64, Python) logging started Tue Sep 10 13:45:57 2019

Academic license - for non-commercial use only

Gurobi 8.1.1 (linux64, Python) logging started Tue Sep 10 13:46:00 2019

Academic license - for non-commercial use only

Gurobi 8.1.1 (linux64, Python) logging started Tue Sep 10 13:46:01 2019

Academic license - for non-commercial use only

Gurobi 8.1.1 (linux64, Python) logging started Tue Sep 10 13:46:09 2019

Academic license - for non-commercial use only

Gurobi 8.1.1 (linux64, Python) logging started Tue Sep 10 13:46:10 2019

Academic license - for non-commercial use only

Gurobi 8.1.1 (linux64, Python) logging started Tue Sep 10 13:46:16 2019

Academic license - for non-commercial use only

Gurobi 8.1.1 (linux64, Python) logging started Tue Sep 10 13:46:17 2019

Academic license - for non-commercial use only

Gurobi 8.1.1 (linux64, Python) logging started Tue Sep 10 13:46:21 2019

Academic license - for non-commercial use only

Gurobi 8.1.1 (linux64, Python) logging started Tue Sep 10 13:46:23 2019

Academic license - for non-commercial use only

Gurobi 8.1.1 (linux64, Python) logging started Tue Sep 10 13:46:32 2019

Academic license - for non-commercial use only

Gurobi 8.1.1 (linux64, Python) logging started Tue Sep 10 13:46:33 2019

Academic license - for non-commercial use only

Gurobi 8.1.1 (linux64, Python) logging started Tue Sep 10 13:46:33 2019

Academic license - for non-commercial use only

Gurobi 8.1.1 (linux64, Python) logging started Tue Sep 10 13:46:39 2019

Academic license - for non-commercial use only

Gurobi 8.1.1 (linux64, Python) logging started Tue Sep 10 13:46:42 2019

Academic license - for non-commercial use only

Gurobi 8.1.1 (linux64, Python) logging started Tue Sep 10 13:46:44 2019

Academic license - for non-commercial use only

Gurobi 8.1.1 (linux64, Python) logging started Tue Sep 10 13:46:48 2019

Academic license - for non-commercial use only

Gurobi 8.1.1 (linux64, Python) logging started Tue Sep 10 13:46:52 2019

Academic license - for non-commercial use only

Gurobi 8.1.1 (linux64, Python) logging started Tue Sep 10 13:46:55 2019

Academic license - for non-commercial use only

Gurobi 8.1.1 (linux64, Python) logging started Tue Sep 10 13:46:58 2019

Academic license - for non-commercial use only

Gurobi 8.1.1 (linux64, Python) logging started Tue Sep 10 13:46:59 2019

Academic license - for non-commercial use only

Gurobi 8.1.1 (linux64, Python) logging started Tue Sep 10 13:47:01 2019

Academic license - for non-commercial use only

Gurobi 8.1.1 (linux64, Python) logging started Tue Sep 10 13:47:02 2019

Academic license - for non-commercial use only

Gurobi 8.1.1 (linux64, Python) logging started Tue Sep 10 13:47:03 2019

Academic license - for non-commercial use only

Gurobi 8.1.1 (linux64, Python) logging started Tue Sep 10 13:47:04 2019

Academic license - for non-commercial use only

Gurobi 8.1.1 (linux64, Python) logging started Tue Sep 10 13:47:08 2019

Academic license - for non-commercial use only

Gurobi 8.1.1 (linux64, Python) logging started Tue Sep 10 13:47:18 2019

Academic license - for non-commercial use only

Gurobi 8.1.1 (linux64, Python) logging started Tue Sep 10 13:47:26 2019

Academic license - for non-commercial use only

Gurobi 8.1.1 (linux64, Python) logging started Tue Sep 10 13:47:48 2019

Academic license - for non-commercial use only
